1193
1   1   62   97   0 18 52 88 10 62 7 82 83 0
1   2   26   89   0 93 85 5 0
1   3   68   94   0 84 16 44 38 14 91 61 0
1   4   137  100  0 70 20 66 65 71 35 89 60 0
2   1   68   96   0 4 39 23 56 21 0
2   2   38   93   0 80 77 33 81 79 3 0
2   3   78   95   0 13 92 37 100 98 58 26 0
2   4   157  91   0 32 90 63 8 17 86 40 0
3   1   100  95   0 97 45 46 47 48 6 0
3   2   33   95   0 95 59 99 96 94 0
3   3   67   83   0 87 42 43 15 41 22 57 2 0
3   4   81   93   0 73 72 55 25 67 75 74 0
4   1   99   94   0 30 51 9 34 78 29 24 54 0
4   2   88   100  0 11 64 49 36 19 31 0
4   3   51   97   0 1 50 76 68 12 69 0
4   4   40   46   0 28 53 27 0